c This is QMaxSAT 2017 based on 14.07
c This is Glucose 3.0
c This is MiniSat 2.2.0
c WARNING: for repeatability, setting FPU to use double precision
c card = mrwto, comp = 0, pmodel = 0, narr = 24, mct = 152, verb = 0
cr firstCPXsol 0 0 0
c top = 158709225
c |  Number of variables:    61250                                            |
c |  Number of clauses:      9762953                                          |
c |  Weight of hard clauses: 158709225                                        |
c |  Number of soft clauses: 717552                                           |
c |  Number of unit soft clauses: 0                                           |
c |  Maximum Cardinality (by unit): 5318258928   (0           )               |
c last restart ## conflicts  :  0 2282 
o 50343 | cpuTime 0.972091 s
c Sum of weights = 221594122
c A number of soft clauses remained = 29898
c MRWTO encoding for Pseudo-Boolean Constraints
c sizeMax=50343
c No.0 Divisor=15	generated by pow1
c No.1 Divisor=15	generated by pow1
c No.2 Divisor=15	generated by pow1
c No.3 Divisor=15	generated by pow1
c p0= 15	p1= 15	p2= 15	p3= 15	
c number of digits = 5
c linkingVar[0].size = 15, linkingVar[1].size = 15, linkingVar[2].size = 15, linkingVar[3].size = 15, linkingVar[4].size = 1, 
c Pseudo-Boolean Constraints: 1107002 variables and 14912451 clauses
c Sum of weights = 221594122
c A number of soft clauses remained = 29898
c MRWTO encoding for Pseudo-Boolean Constraints
c sizeMax=50343
c No.0 Divisor=15	generated by pow1
c No.1 Divisor=15	generated by pow1
c No.2 Divisor=15	generated by pow1
c No.3 Divisor=15	generated by pow1
c p0= 15	p1= 15	p2= 15	p3= 15	
c number of digits = 5
c linkingVar[0].size = 15, linkingVar[1].size = 15, linkingVar[2].size = 15, linkingVar[3].size = 15, linkingVar[4].size = 1, 
c Pseudo-Boolean Constraints: 1107002 variables and 14912451 clauses
c Sum of weights = 221594122
c A number of soft clauses remained = 29898
c MRWTO encoding for Pseudo-Boolean Constraints
c sizeMax=50343
c No.0 Divisor=15	generated by pow1
c No.1 Divisor=15	generated by pow1
c No.2 Divisor=15	generated by pow1
c No.3 Divisor=15	generated by pow1
c p0= 15	p1= 15	p2= 15	p3= 15	
c number of digits = 5
c linkingVar[0].size = 15, linkingVar[1].size = 15, linkingVar[2].size = 15, linkingVar[3].size = 15, linkingVar[4].size = 1, 
c Pseudo-Boolean Constraints: 1107002 variables and 14912451 clauses
c Sum of weights = 221594122
c A number of soft clauses remained = 29898
c MRWTO encoding for Pseudo-Boolean Constraints
c sizeMax=50343
c No.0 Divisor=15	generated by pow1
c No.1 Divisor=15	generated by pow1
c No.2 Divisor=15	generated by pow1
c No.3 Divisor=15	generated by pow1
c p0= 15	p1= 15	p2= 15	p3= 15	
c number of digits = 5
c linkingVar[0].size = 15, linkingVar[1].size = 15, linkingVar[2].size = 15, linkingVar[3].size = 15, linkingVar[4].size = 1, 
c Pseudo-Boolean Constraints: 1107002 variables and 14912451 clauses
c Sum of weights = 221594122
c A number of soft clauses remained = 29898
c MRWTO encoding for Pseudo-Boolean Constraints
c sizeMax=50343
c No.0 Divisor=15	generated by pow1
c No.1 Divisor=15	generated by pow1
c No.2 Divisor=15	generated by pow1
c No.3 Divisor=15	generated by pow1
c p0= 15	p1= 15	p2= 15	p3= 15	
c number of digits = 5
c linkingVar[0].size = 15, linkingVar[1].size = 15, linkingVar[2].size = 15, linkingVar[3].size = 15, linkingVar[4].size = 1, 
c Pseudo-Boolean Constraints: 1107002 variables and 14912451 clauses
c Sum of weights = 221594122
c A number of soft clauses remained = 29898
c MRWTO encoding for Pseudo-Boolean Constraints
c sizeMax=50343
c No.0 Divisor=15	generated by pow1
c No.1 Divisor=15	generated by pow1
c No.2 Divisor=15	generated by pow1
c No.3 Divisor=15	generated by pow1
c p0= 15	p1= 15	p2= 15	p3= 15	
c number of digits = 5
c linkingVar[0].size = 15, linkingVar[1].size = 15, linkingVar[2].size = 15, linkingVar[3].size = 15, linkingVar[4].size = 1, 
c Pseudo-Boolean Constraints: 1107002 variables and 14912451 clauses
c Sum of weights = 221594122
c A number of soft clauses remained = 29898
c MRWTO encoding for Pseudo-Boolean Constraints
c sizeMax=50343
c No.0 Divisor=15	generated by pow1
c No.1 Divisor=15	generated by pow1
c No.2 Divisor=15	generated by pow1
c No.3 Divisor=15	generated by pow1
c p0= 15	p1= 15	p2= 15	p3= 15	
c number of digits = 5
c linkingVar[0].size = 15, linkingVar[1].size = 15, linkingVar[2].size = 15, linkingVar[3].size = 15, linkingVar[4].size = 1, 
c Pseudo-Boolean Constraints: 1107002 variables and 14912451 clauses
c Sum of weights = 221594122
c A number of soft clauses remained = 29898
c MRWTO encoding for Pseudo-Boolean Constraints
c sizeMax=50343
c No.0 Divisor=15	generated by pow1
c No.1 Divisor=15	generated by pow1
c No.2 Divisor=15	generated by pow1
c No.3 Divisor=15	generated by pow1
c p0= 15	p1= 15	p2= 15	p3= 15	
c number of digits = 5
c linkingVar[0].size = 15, linkingVar[1].size = 15, linkingVar[2].size = 15, linkingVar[3].size = 15, linkingVar[4].size = 1, 
c Pseudo-Boolean Constraints: 1107002 variables and 14912451 clauses
c Sum of weights = 221594122
c A number of soft clauses remained = 29898
c MRWTO encoding for Pseudo-Boolean Constraints
c sizeMax=50343
c No.0 Divisor=15	generated by pow1
c No.1 Divisor=15	generated by pow1
c No.2 Divisor=15	generated by pow1
c No.3 Divisor=15	generated by pow1
c p0= 15	p1= 15	p2= 15	p3= 15	
c number of digits = 5
c linkingVar[0].size = 15, linkingVar[1].size = 15, linkingVar[2].size = 15, linkingVar[3].size = 15, linkingVar[4].size = 1, 
c Pseudo-Boolean Constraints: 1107002 variables and 14912451 clauses
c Sum of weights = 221594122
c A number of soft clauses remained = 29898
c MRWTO encoding for Pseudo-Boolean Constraints
c sizeMax=50343
c No.0 Divisor=15	generated by pow1
c No.1 Divisor=15	generated by pow1
c No.2 Divisor=15	generated by pow1
c No.3 Divisor=15	generated by pow1
c p0= 15	p1= 15	p2= 15	p3= 15	
c number of digits = 5
c linkingVar[0].size = 15, linkingVar[1].size = 15, linkingVar[2].size = 15, linkingVar[3].size = 15, linkingVar[4].size = 1, 
c Pseudo-Boolean Constraints: 1107002 variables and 14912451 clauses
c Sum of weights = 221594122
c A number of soft clauses remained = 29898
c MRWTO encoding for Pseudo-Boolean Constraints
c sizeMax=50343
c No.0 Divisor=15	generated by pow1
c No.1 Divisor=15	generated by pow1
c No.2 Divisor=15	generated by pow1
c No.3 Divisor=15	generated by pow1
c p0= 15	p1= 15	p2= 15	p3= 15	
c number of digits = 5
c linkingVar[0].size = 15, linkingVar[1].size = 15, linkingVar[2].size = 15, linkingVar[3].size = 15, linkingVar[4].size = 1, 
c Pseudo-Boolean Constraints: 1107002 variables and 14912451 clauses
c Sum of weights = 221594122
c A number of soft clauses remained = 29898
c MRWTO encoding for Pseudo-Boolean Constraints
c sizeMax=50343
c No.0 Divisor=15	generated by pow1
c No.1 Divisor=15	generated by pow1
c No.2 Divisor=15	generated by pow1
c No.3 Divisor=15	generated by pow1
c p0= 15	p1= 15	p2= 15	p3= 15	
c number of digits = 5
c linkingVar[0].size = 15, linkingVar[1].size = 15, linkingVar[2].size = 15, linkingVar[3].size = 15, linkingVar[4].size = 1, 
c Pseudo-Boolean Constraints: 1107002 variables and 14912451 clauses
c Sum of weights = 221594122
c A number of soft clauses remained = 29898
c MRWTO encoding for Pseudo-Boolean Constraints
c sizeMax=50343
c No.0 Divisor=15	generated by pow1
c No.1 Divisor=15	generated by pow1
c No.2 Divisor=15	generated by pow1
c No.3 Divisor=15	generated by pow1
c p0= 15	p1= 15	p2= 15	p3= 15	
c number of digits = 5
c linkingVar[0].size = 15, linkingVar[1].size = 15, linkingVar[2].size = 15, linkingVar[3].size = 15, linkingVar[4].size = 1, 
c Pseudo-Boolean Constraints: 1107002 variables and 14912451 clauses
c Sum of weights = 221594122
c A number of soft clauses remained = 29898
c MRWTO encoding for Pseudo-Boolean Constraints
c sizeMax=50343
c No.0 Divisor=15	generated by pow1
c No.1 Divisor=15	generated by pow1
c No.2 Divisor=15	generated by pow1
c No.3 Divisor=15	generated by pow1
c p0= 15	p1= 15	p2= 15	p3= 15	
c number of digits = 5
c linkingVar[0].size = 15, linkingVar[1].size = 15, linkingVar[2].size = 15, linkingVar[3].size = 15, linkingVar[4].size = 1, 
c Pseudo-Boolean Constraints: 1107002 variables and 14912451 clauses
c Sum of weights = 221594122
c A number of soft clauses remained = 29898
c MRWTO encoding for Pseudo-Boolean Constraints
c sizeMax=50343
c No.0 Divisor=15	generated by pow1
c No.1 Divisor=15	generated by pow1
c No.2 Divisor=15	generated by pow1
c No.3 Divisor=15	generated by pow1
c p0= 15	p1= 15	p2= 15	p3= 15	
c number of digits = 5
c linkingVar[0].size = 15, linkingVar[1].size = 15, linkingVar[2].size = 15, linkingVar[3].size = 15, linkingVar[4].size = 1, 
c Pseudo-Boolean Constraints: 1107002 variables and 14912451 clauses
c Sum of weights = 221594122
c A number of soft clauses remained = 29898
c MRWTO encoding for Pseudo-Boolean Constraints
c sizeMax=50343
c No.0 Divisor=15	generated by pow1
c No.1 Divisor=15	generated by pow1
c No.2 Divisor=15	generated by pow1
c No.3 Divisor=15	generated by pow1
c p0= 15	p1= 15	p2= 15	p3= 15	
c number of digits = 5
c linkingVar[0].size = 15, linkingVar[1].size = 15, linkingVar[2].size = 15, linkingVar[3].size = 15, linkingVar[4].size = 1, 
c Pseudo-Boolean Constraints: 1107002 variables and 14912451 clauses
c Sum of weights = 221594122
c A number of soft clauses remained = 29898
c MRWTO encoding for Pseudo-Boolean Constraints
c sizeMax=50343
c No.0 Divisor=15	generated by pow1
c No.1 Divisor=15	generated by pow1
c No.2 Divisor=15	generated by pow1
c No.3 Divisor=15	generated by pow1
c p0= 15	p1= 15	p2= 15	p3= 15	
c number of digits = 5
c linkingVar[0].size = 15, linkingVar[1].size = 15, linkingVar[2].size = 15, linkingVar[3].size = 15, linkingVar[4].size = 1, 
c Pseudo-Boolean Constraints: 1107002 variables and 14912451 clauses
c Sum of weights = 221594122
c A number of soft clauses remained = 29898
c MRWTO encoding for Pseudo-Boolean Constraints
c sizeMax=50343
c No.0 Divisor=15	generated by pow1
c No.1 Divisor=15	generated by pow1
c No.2 Divisor=15	generated by pow1
c No.3 Divisor=15	generated by pow1
c p0= 15	p1= 15	p2= 15	p3= 15	
c number of digits = 5
c linkingVar[0].size = 15, linkingVar[1].size = 15, linkingVar[2].size = 15, linkingVar[3].size = 15, linkingVar[4].size = 1, 
c Pseudo-Boolean Constraints: 1107002 variables and 14912451 clauses
c Sum of weights = 221594122
c A number of soft clauses remained = 29898
c MRWTO encoding for Pseudo-Boolean Constraints
c sizeMax=50343
c No.0 Divisor=15	generated by pow1
c No.1 Divisor=15	generated by pow1
c No.2 Divisor=15	generated by pow1
c No.3 Divisor=15	generated by pow1
c p0= 15	p1= 15	p2= 15	p3= 15	
c number of digits = 5
c linkingVar[0].size = 15, linkingVar[1].size = 15, linkingVar[2].size = 15, linkingVar[3].size = 15, linkingVar[4].size = 1, 
c Pseudo-Boolean Constraints: 1107002 variables and 14912451 clauses
c Sum of weights = 221594122
c A number of soft clauses remained = 29898
c MRWTO encoding for Pseudo-Boolean Constraints
c sizeMax=50343
c No.0 Divisor=15	generated by pow1
c No.1 Divisor=15	generated by pow1
c No.2 Divisor=15	generated by pow1
c No.3 Divisor=15	generated by pow1
c p0= 15	p1= 15	p2= 15	p3= 15	
c number of digits = 5
c linkingVar[0].size = 15, linkingVar[1].size = 15, linkingVar[2].size = 15, linkingVar[3].size = 15, linkingVar[4].size = 1, 
c Pseudo-Boolean Constraints: 1107002 variables and 14912451 clauses
c Sum of weights = 221594122
c A number of soft clauses remained = 29898
c MRWTO encoding for Pseudo-Boolean Constraints
c sizeMax=50343
c No.0 Divisor=15	generated by pow1
c No.1 Divisor=15	generated by pow1
c No.2 Divisor=15	generated by pow1
c No.3 Divisor=15	generated by pow1
c p0= 15	p1= 15	p2= 15	p3= 15	
c number of digits = 5
c linkingVar[0].size = 15, linkingVar[1].size = 15, linkingVar[2].size = 15, linkingVar[3].size = 15, linkingVar[4].size = 1, 
c Pseudo-Boolean Constraints: 1107002 variables and 14912451 clauses
c Sum of weights = 221594122
c A number of soft clauses remained = 29898
c MRWTO encoding for Pseudo-Boolean Constraints
c sizeMax=50343
c No.0 Divisor=15	generated by pow1
c No.1 Divisor=15	generated by pow1
c No.2 Divisor=15	generated by pow1
c No.3 Divisor=15	generated by pow1
c p0= 15	p1= 15	p2= 15	p3= 15	
c number of digits = 5
c linkingVar[0].size = 15, linkingVar[1].size = 15, linkingVar[2].size = 15, linkingVar[3].size = 15, linkingVar[4].size = 1, 
c Pseudo-Boolean Constraints: 1107002 variables and 14912451 clauses
c Sum of weights = 221594122
c A number of soft clauses remained = 29898
c MRWTO encoding for Pseudo-Boolean Constraints
c sizeMax=50343
c No.0 Divisor=15	generated by pow1
c No.1 Divisor=15	generated by pow1
c No.2 Divisor=15	generated by pow1
c No.3 Divisor=15	generated by pow1
c p0= 15	p1= 15	p2= 15	p3= 15	
c number of digits = 5
c linkingVar[0].size = 15, linkingVar[1].size = 15, linkingVar[2].size = 15, linkingVar[3].size = 15, linkingVar[4].size = 1, 
c Pseudo-Boolean Constraints: 1107002 variables and 14912451 clauses
c Sum of weights = 221594122
c A number of soft clauses remained = 29898
c MRWTO encoding for Pseudo-Boolean Constraints
c sizeMax=50343
c No.0 Divisor=15	generated by pow1
c No.1 Divisor=15	generated by pow1
c No.2 Divisor=15	generated by pow1
c No.3 Divisor=15	generated by pow1
c p0= 15	p1= 15	p2= 15	p3= 15	
c number of digits = 5
c linkingVar[0].size = 15, linkingVar[1].size = 15, linkingVar[2].size = 15, linkingVar[3].size = 15, linkingVar[4].size = 1, 
c Pseudo-Boolean Constraints: 1107002 variables and 14912451 clauses
s UNKNOWN
c Search is stopped by a limit (maybe time-limit)
cr positiVarArr: [ | 25(1->2) | 201(1->3) | 377(1->4) | 553(1->5) | 729(1->6) | 905(1->7) | 1081(1->8) | 1257(1->9) | 1433(1->10) | 1609(1->11) | 1785(1->12) | 1961(1->13) | 2137(1->14) | 2313(1->15) | 2489(1->16) | 2665(1->17) | 2841(1->18) | 3017(1->19) | 3193(1->20) | 3369(1->21) | 3545(1->22) | 3721(1->23) | 3897(1->24) | 4073(1->25) | 4249(2->26) | 4425(3->27) | 4601(4->28) | 4777(5->29) | 4953(6->30) | 5129(7->31) | 5305(8->32) | 5481(9->33) | 5657(10->34) | 5833(11->35) | 6009(12->36) | 6185(13->37) | 6361(14->38) | 6537(15->39) | 6713(16->40) | 6889(17->41) | 7065(18->42) | 7241(19->43) | 7417(20->44) | 7593(21->45) | 7769(22->46) | 7945(23->47) | 8121(24->48) | 8297(25->49) | 8473(26->50) | 8649(27->51) | 8825(28->52) | 9001(29->53) | 9177(30->54) | 9353(31->55) | 9529(32->56) | 9705(33->57) | 9881(34->58) | 10057(35->59) | 10233(36->60) | 10409(37->61) | 10585(38->62) | 10761(39->63) | 10937(40->64) | 11113(41->65) | 11289(42->66) | 11465(43->67) | 11641(44->68) | 11817(45->69) | 11993(46->70) | 12169(47->71) | 12345(48->72) | 12521(49->73) | 12697(50->74) | 12873(51->75) | 13049(52->76) | 13225(53->77) | 13401(54->78) | 13577(55->79) | 13753(56->80) | 13929(57->81) | 14105(58->82) | 14281(59->83) | 14457(60->84) | 14633(61->85) | 14809(62->86) | 14985(63->87) | 15161(64->88) | 15337(65->89) | 15513(66->90) | 15689(67->91) | 15865(68->92) | 16041(69->93) | 16217(70->94) | 16393(71->95) | 16569(72->96) | 16745(73->97) | 16921(74->98) | 17097(75->99) | 17273(76->100) | 17449(77->101) | 17625(78->102) | 17801(79->103) | 17977(80->104) | 18153(81->105) | 18329(82->106) | 18505(83->107) | 18681(84->108) | 18857(85->109) | 19033(86->110) | 19209(87->111) | 19385(88->112) | 19561(89->113) | 19737(90->114) | 19913(91->115) | 20089(92->116) | 20265(93->117) | 20441(94->118) | 20617(95->119) | 20793(96->120) | 20969(97->121) | 21145(98->122) | 21321(99->123) | 21497(100->124) | 21673(101->125) | 21849(102->126) | 22025(103->127) | 22201(104->128) | 22377(105->129) | 22553(106->130) | 22729(107->131) | 22905(108->132) | 23081(109->133) | 23257(110->134) | 23433(111->135) | 23609(112->136) | 23785(113->137) | 23961(114->138) | 24137(115->139) | 24313(116->140) | 24489(117->141) | 24665(118->142) | 24841(119->143) | 25017(120->144) | 25193(121->145) | 25369(122->146) | 25545(123->147) | 25721(124->148) | 25897(125->149) | 26073(126->150) | 26249(127->151) | 26425(128->152) | 26449(129->1) | 26623(130->1) | 26797(131->1) | 26971(132->1) | 27145(133->1) | 27319(134->1) | 27493(135->1) | 27667(136->1) | 27841(137->1) | 28015(138->1) | 28189(139->1) | 28363(140->1) | 28537(141->1) | 28711(142->1) | 28885(143->1) | 29059(144->1) | 29233(145->1) | 29407(146->1) | 29581(147->1) | 29755(148->1) | 29929(149->1) | 30103(150->1) | 30277(151->1) | 30451(152->1) | ]
cr the 1-th chain: [ 1->2->26->50->74->98->122->146->1 ] (#non-depot=7) {#cumul.=8}
cr the 2-th chain: [ 1->3->27->51->75->99->123->147->1 ] (#non-depot=7) {#cumul.=15}
cr the 3-th chain: [ 1->4->28->52->76->100->124->148->1 ] (#non-depot=7) {#cumul.=22}
cr the 4-th chain: [ 1->5->29->53->77->101->125->149->1 ] (#non-depot=7) {#cumul.=29}
cr the 5-th chain: [ 1->6->30->54->78->102->126->150->1 ] (#non-depot=7) {#cumul.=36}
cr the 6-th chain: [ 1->7->31->55->79->103->127->151->1 ] (#non-depot=7) {#cumul.=43}
cr the 7-th chain: [ 1->8->32->56->80->104->128->152->1 ] (#non-depot=7) {#cumul.=50}
cr the 8-th chain: [ 1->9->33->57->81->105->129->1 ] (#non-depot=6) {#cumul.=56}
cr the 9-th chain: [ 1->10->34->58->82->106->130->1 ] (#non-depot=6) {#cumul.=62}
cr the 10-th chain: [ 1->11->35->59->83->107->131->1 ] (#non-depot=6) {#cumul.=68}
cr the 11-th chain: [ 1->12->36->60->84->108->132->1 ] (#non-depot=6) {#cumul.=74}
cr the 12-th chain: [ 1->13->37->61->85->109->133->1 ] (#non-depot=6) {#cumul.=80}
cr the 13-th chain: [ 1->14->38->62->86->110->134->1 ] (#non-depot=6) {#cumul.=86}
cr the 14-th chain: [ 1->15->39->63->87->111->135->1 ] (#non-depot=6) {#cumul.=92}
cr the 15-th chain: [ 1->16->40->64->88->112->136->1 ] (#non-depot=6) {#cumul.=98}
cr the 16-th chain: [ 1->17->41->65->89->113->137->1 ] (#non-depot=6) {#cumul.=104}
cr the 17-th chain: [ 1->18->42->66->90->114->138->1 ] (#non-depot=6) {#cumul.=110}
cr the 18-th chain: [ 1->19->43->67->91->115->139->1 ] (#non-depot=6) {#cumul.=116}
cr the 19-th chain: [ 1->20->44->68->92->116->140->1 ] (#non-depot=6) {#cumul.=122}
cr the 20-th chain: [ 1->21->45->69->93->117->141->1 ] (#non-depot=6) {#cumul.=128}
cr the 21-th chain: [ 1->22->46->70->94->118->142->1 ] (#non-depot=6) {#cumul.=134}
cr the 22-th chain: [ 1->23->47->71->95->119->143->1 ] (#non-depot=6) {#cumul.=140}
cr the 23-th chain: [ 1->24->48->72->96->120->144->1 ] (#non-depot=6) {#cumul.=146}
cr the 24-th chain: [ 1->25->49->73->97->121->145->1 ] (#non-depot=6) {#cumul.=152}
c Latest Answer = 0 by 1 loops
c restarts              : 945
c conflicts             : 141667         (39 /sec)
c decisions             : 54789316       (0.00 % random) (15192 /sec)
c propagations          : 21655840281    (6004798 /sec)
c conflict literals     : 9957607        (8.52 % deleted)
c Memory used           : 23686.00 MB
c CPU time              : 3606.42 s
